c generated by sgen
p cnf 109 228
-2 -3 -4 0
-1 -3 -4 0
-1 -2 -4 0
-1 -2 -3 0
-6 -7 -8 0
-5 -7 -8 0
-5 -6 -8 0
-5 -6 -7 0
-10 -11 -12 0
-9 -11 -12 0
-9 -10 -12 0
-9 -10 -11 0
-14 -15 -16 0
-13 -15 -16 0
-13 -14 -16 0
-13 -14 -15 0
-18 -19 -20 0
-17 -19 -20 0
-17 -18 -20 0
-17 -18 -19 0
-22 -23 -24 0
-21 -23 -24 0
-21 -22 -24 0
-21 -22 -23 0
-26 -27 -28 0
-25 -27 -28 0
-25 -26 -28 0
-25 -26 -27 0
-30 -31 -32 0
-29 -31 -32 0
-29 -30 -32 0
-29 -30 -31 0
-34 -35 -36 0
-33 -35 -36 0
-33 -34 -36 0
-33 -34 -35 0
-38 -39 -40 0
-37 -39 -40 0
-37 -38 -40 0
-37 -38 -39 0
-42 -43 -44 0
-41 -43 -44 0
-41 -42 -44 0
-41 -42 -43 0
-46 -47 -48 0
-45 -47 -48 0
-45 -46 -48 0
-45 -46 -47 0
-50 -51 -52 0
-49 -51 -52 0
-49 -50 -52 0
-49 -50 -51 0
-54 -55 -56 0
-53 -55 -56 0
-53 -54 -56 0
-53 -54 -55 0
-58 -59 -60 0
-57 -59 -60 0
-57 -58 -60 0
-57 -58 -59 0
-62 -63 -64 0
-61 -63 -64 0
-61 -62 -64 0
-61 -62 -63 0
-66 -67 -68 0
-65 -67 -68 0
-65 -66 -68 0
-65 -66 -67 0
-70 -71 -72 0
-69 -71 -72 0
-69 -70 -72 0
-69 -70 -71 0
-74 -75 -76 0
-73 -75 -76 0
-73 -74 -76 0
-73 -74 -75 0
-78 -79 -80 0
-77 -79 -80 0
-77 -78 -80 0
-77 -78 -79 0
-82 -83 -84 0
-81 -83 -84 0
-81 -82 -84 0
-81 -82 -83 0
-86 -87 -88 0
-85 -87 -88 0
-85 -86 -88 0
-85 -86 -87 0
-90 -91 -92 0
-89 -91 -92 0
-89 -90 -92 0
-89 -90 -91 0
-94 -95 -96 0
-93 -95 -96 0
-93 -94 -96 0
-93 -94 -95 0
-98 -99 -100 0
-97 -99 -100 0
-97 -98 -100 0
-97 -98 -99 0
-102 -103 -104 0
-101 -103 -104 0
-101 -102 -104 0
-101 -102 -103 0
-105 -106 -107 0
-105 -106 -108 0
-105 -106 -109 0
-105 -107 -108 0
-105 -107 -109 0
-105 -108 -109 0
-106 -107 -108 0
-106 -107 -109 0
-106 -108 -109 0
-107 -108 -109 0
48 40 64 0
42 40 64 0
42 48 64 0
42 48 40 0
103 6 63 0
49 6 63 0
49 103 63 0
49 103 6 0
83 101 94 0
75 101 94 0
75 83 94 0
75 83 101 0
15 90 65 0
99 90 65 0
99 15 65 0
99 15 90 0
31 46 69 0
35 46 69 0
35 31 69 0
35 31 46 0
51 108 78 0
47 108 78 0
47 51 78 0
47 51 108 0
92 85 29 0
104 85 29 0
104 92 29 0
104 92 85 0
77 13 39 0
55 13 39 0
55 77 39 0
55 77 13 0
54 33 18 0
105 33 18 0
105 54 18 0
105 54 33 0
4 23 45 0
16 23 45 0
16 4 45 0
16 4 23 0
89 44 81 0
34 44 81 0
34 89 81 0
34 89 44 0
106 9 74 0
2 9 74 0
2 106 74 0
2 106 9 0
62 91 26 0
53 91 26 0
53 62 26 0
53 62 91 0
25 93 14 0
72 93 14 0
72 25 14 0
72 25 93 0
96 80 98 0
12 80 98 0
12 96 98 0
12 96 80 0
102 109 43 0
71 109 43 0
71 102 43 0
71 102 109 0
27 50 38 0
36 50 38 0
36 27 38 0
36 27 50 0
21 95 86 0
60 95 86 0
60 21 86 0
60 21 95 0
56 7 67 0
30 7 67 0
30 56 67 0
30 56 7 0
70 19 79 0
1 19 79 0
1 70 79 0
1 70 19 0
24 3 68 0
52 3 68 0
52 24 68 0
52 24 3 0
73 41 58 0
5 41 58 0
5 73 58 0
5 73 41 0
22 20 100 0
76 20 100 0
76 22 100 0
76 22 20 0
59 10 61 0
87 10 61 0
87 59 61 0
87 59 10 0
8 107 88 0
97 107 88 0
97 8 88 0
97 8 107 0
84 28 32 0
11 28 32 0
11 84 32 0
11 84 28 0
17 57 82 0
17 57 66 0
17 57 37 0
17 82 66 0
17 82 37 0
17 66 37 0
57 82 66 0
57 82 37 0
57 66 37 0
82 66 37 0
